Optimize a model with 401 rows, 440 columns and 2508 nonzeros
Model has 1 quadratic constraint
Coefficient statistics:
  Matrix range    [1e+00, 2e+01]
  Objective range [1e+02, 7e+02]
  Bounds range    [1e+00, 2e+01]
  RHS range       [1e+00, 2e+01]
Presolve removed 0 rows and 22 columns
Presolve time: 0.01s
Presolved: 763 rows, 779 columns, 3952 nonzeros
Variable types: 0 continuous, 779 integer (760 binary)

Root relaxation: objective 3.880000e+02, 32 iterations, 0.00 seconds

    Nodes    |    Current Node    |     Objective Bounds      |     Work
 Expl Unexpl |  Obj  Depth IntInf | Incumbent    BestBd   Gap | It/Node Time

     0     0  388.00000    0   17          -  388.00000      -     -    0s
     0     0  388.00000    0   18          -  388.00000      -     -    0s
     0     0  388.00000    0   20          -  388.00000      -     -    0s
     0     0  388.00000    0   17          -  388.00000      -     -    0s
     0     0  388.00000    0   18          -  388.00000      -     -    0s
     0     0  388.00000    0   19          -  388.00000      -     -    0s
     0     0  388.00000    0   18          -  388.00000      -     -    0s
H    0     0                    4670.0000000  388.00000  91.7%     -    0s
     0     2  388.00000    0   18 4670.00000  388.00000  91.7%     -    0s
H  297   297                    2522.0000000  488.00000  80.7%   2.2    0s
H  512   456                    1620.0000000 1356.44082  16.3%   3.2    0s
*  622   439              76    1498.0000000 1370.61835  8.50%   4.7    0s
H  630   416                    1489.0000000 1375.47291  7.62%   4.8    0s
*  632   374              30    1399.0000000 1375.47291  1.68%   4.8    0s
*  641   339              27    1390.0000000 1380.94246  0.65%   4.8    0s

Cutting planes:
  Implied bound: 2

Explored 644 nodes (3914 simplex iterations) in 0.89 seconds
Thread count was 1 (of 4 available processors)

Optimal solution found (tolerance 1.00e-04)
Best objective 1.390000000000e+03, best bound 1.390000000000e+03, gap 0.0%
1390
(0,8) (14,0) (12,7) (7,16) (8,12) (15,10) (10,19) (17,14) (16,15) (19,17) 
